proyfinal/src/viki/013/andrea/andrea-localstore/experimentInOfficeAgust.take6/worker_3/7a46e167-a590-4b2d-9fb7-cfe5cef653e3.als.cnf.out
Reading from standard input... Use '--help' for help.
============================[ Problem Statistics ]=============================
|                                                                             |
|  Number of variables:         87638                                         |
|  Number of clauses:          161767                                         |
|  Parse time:                   0.04 s                                       |
|                                                                             |
============================[ Search Statistics ]==============================
| Conflicts |          ORIGINAL         |          LEARNT          | Progress |
|           |    Vars  Clauses Literals |    Limit  Clauses Lit/Cl |          |
===============================================================================
|       100 |   63339   108530   271358 |    39794      100     22 | 27.727 % |
|       250 |   63339   108530   271358 |    43773      250     32 | 27.727 % |
|       475 |   63339   108530   271358 |    48151      475     41 | 27.727 % |
|       812 |   63339   108530   271358 |    52966      812     54 | 27.727 % |
|      1318 |   63335   108514   271314 |    58262     1209     47 | 27.731 % |
|      2077 |   63335   108514   271314 |    64089     1968     62 | 27.731 % |
|      3216 |   50365    71246   179060 |    70498     3027     65 | 42.531 % |
|      4924 |   50203    70604   177405 |    77547     4713     65 | 42.715 % |
|      7486 |   50131    70258   176599 |    85302     6895     61 | 42.798 % |
|     11330 |   49758    68710   172982 |    93832     9576     58 | 43.223 % |
|     17096 |   47359    59873   151349 |   103216    10196     48 | 45.961 % |
===============================================================================
restarts              : 63
conflicts             : 17271          (7860 /sec)
decisions             : 53842          (0.00 % random) (24504 /sec)
propagations          : 23359608       (10631302 /sec)
conflict literals     : 853803         (49.56 % deleted)
Memory used           : 34.39 MB
CPU time              : 2.19725 s

UNSATISFIABLE
